c uprop, v00.0, 
c reading from data/prog542.c.cnf
c done reading: 0.005117
p cnf 219 1108
-124 -145 0
-124 -141 0
124 141 145 0
-118 141 145 0
-118 -141 -145 0
118 141 -145 0
118 -141 145 0
124 -136 0
-134 -136 0
-124 134 136 0
-124 -129 134 0
124 -129 -134 0
124 129 134 0
-124 129 -134 0
-125 136 0
-122 -125 0
122 125 -136 0
-120 122 -136 0
-120 -122 136 0
120 122 136 0
120 -122 -136 0
-119 125 0
-116 -119 0
116 119 -125 0
116 -125 -143 0
-116 125 -143 0
116 125 143 0
-116 -125 143 0
119 -147 0
-138 -147 0
-119 138 147 0
-119 138 -148 0
119 -138 -148 0
119 138 148 0
-119 -138 148 0
147 -149 0
-131 -149 0
131 -147 149 0
131 -147 -150 0
-131 147 -150 0
131 147 150 0
-131 -147 150 0
149 -151 0
-127 -151 0
127 -149 151 0
127 -149 -152 0
-127 149 -152 0
127 149 152 0
-127 -149 152 0
141 -153 0
145 -153 0
-141 -145 153 0
-141 -145 -154 0
141 145 -154 0
-141 145 154 0
141 -145 154 0
-134 -141 155 0
-134 -153 155 0
-141 -153 155 0
134 141 -155 0
134 153 -155 0
141 153 -155 0
134 -155 -156 0
141 -155 -156 0
153 -155 -156 0
-134 155 156 0
-141 155 156 0
-153 155 156 0
-134 -141 -153 156 0
134 141 153 -156 0
-122 -134 157 0
-122 -155 157 0
-134 -155 157 0
122 134 -157 0
122 155 -157 0
134 155 -157 0
122 -157 -158 0
134 -157 -158 0
155 -157 -158 0
-122 157 158 0
-134 157 158 0
-155 157 158 0
-122 -134 -155 158 0
122 134 155 -158 0
-116 -122 159 0
-116 -157 159 0
-122 -157 159 0
116 122 -159 0
116 157 -159 0
122 157 -159 0
-114 116 -159 0
-114 122 -159 0
-114 157 -159 0
114 -116 159 0
114 -122 159 0
114 -157 159 0
114 -116 -122 -157 0
-114 116 122 157 0
113 -116 -138 0
113 -138 -159 0
113 -116 -159 0
-113 116 138 0
-113 138 159 0
-113 116 159 0
-112 -113 138 0
-112 -113 116 0
-112 -113 159 0
112 113 -138 0
112 113 -116 0
112 113 -159 0
112 -116 -138 -159 0
-112 116 138 159 0
111 -131 -138 0
111 -113 -131 0
111 -113 -138 0
-111 131 138 0
-111 113 131 0
-111 113 138 0
-110 -111 131 0
-110 -111 138 0
-110 -111 113 0
110 111 -131 0
110 111 -138 0
110 111 -113 0
110 -113 -131 -138 0
-110 113 131 138 0
109 -127 -131 0
109 -111 -127 0
109 -111 -131 0
-109 127 131 0
-109 111 127 0
-109 111 131 0
-109 127 -144 0
-109 131 -144 0
-109 111 -144 0
109 -127 144 0
109 -131 144 0
109 -111 144 0
-111 -127 -131 144 0
111 127 131 -144 0
127 -140 0
109 -140 0
-109 -127 140 0
-109 -127 -133 0
109 127 -133 0
109 -127 133 0
-109 127 133 0
-121 156 0
-121 145 0
121 -145 -156 0
-115 -145 -156 0
-115 145 156 0
115 145 -156 0
115 -145 156 0
137 -141 -158 0
-121 137 -158 0
-121 137 -141 0
-137 141 158 0
121 -137 158 0
121 -137 141 0
-130 -137 158 0
-130 -137 141 0
121 -130 -137 0
130 137 -158 0
130 137 -141 0
-121 130 137 0
-121 130 -141 -158 0
121 -130 141 158 0
-114 126 -134 0
-114 126 -137 0
126 -134 -137 0
114 -126 134 0
114 -126 137 0
-126 134 137 0
-108 114 -126 0
-108 -126 134 0
-108 -126 137 0
108 -114 126 0
108 126 -134 0
108 126 -137 0
108 -114 -134 -137 0
-108 114 134 137 0
107 -112 -122 0
107 -112 -126 0
107 -122 -126 0
-107 112 122 0
-107 112 126 0
-107 122 126 0
-106 -107 112 0
-106 -107 122 0
-106 -107 126 0
106 107 -112 0
106 107 -122 0
106 107 -126 0
106 -112 -122 -126 0
-106 112 122 126 0
105 -110 -116 0
105 -107 -110 0
105 -107 -116 0
-105 110 116 0
-105 107 110 0
-105 107 116 0
-104 -105 110 0
-104 -105 116 0
-104 -105 107 0
104 105 -110 0
104 105 -116 0
104 105 -107 0
104 -107 -110 -116 0
-104 107 110 116 0
103 -138 -144 0
103 -105 -144 0
103 -105 -138 0
-103 138 144 0
-103 105 144 0
-103 105 138 0
-102 -103 144 0
-102 -103 138 0
-102 -103 105 0
102 103 -144 0
102 103 -138 0
102 103 -105 0
102 -105 -138 -144 0
-102 105 138 144 0
101 -131 -133 0
101 -103 -133 0
101 -103 -131 0
-101 131 133 0
-101 103 133 0
-101 103 131 0
-100 -101 133 0
-100 -101 131 0
-100 -101 103 0
100 101 -133 0
100 101 -131 0
100 101 -103 0
100 -103 -131 -133 0
-100 103 131 133 0
99 -127 -140 0
99 -101 -140 0
99 -101 -127 0
-99 127 140 0
-99 101 140 0
-99 101 127 0
-98 -99 140 0
-98 -99 127 0
-98 -99 101 0
98 99 -140 0
98 99 -127 0
98 99 -101 0
98 -101 -127 -140 0
-98 101 127 140 0
-97 130 0
-97 145 0
97 -130 -145 0
-96 -130 -145 0
-96 130 145 0
96 -130 145 0
96 130 -145 0
95 -108 -141 0
95 -97 -108 0
95 -97 -141 0
-95 108 141 0
-95 97 108 0
-95 97 141 0
-94 -95 108 0
-94 -95 141 0
-94 -95 97 0
94 95 -108 0
94 95 -141 0
94 95 -97 0
94 -97 -108 -141 0
-94 97 108 141 0
93 -106 -134 0
93 -95 -106 0
93 -95 -134 0
-93 106 134 0
-93 95 106 0
-93 95 134 0
-93 106 -160 0
-93 134 -160 0
-93 95 -160 0
93 -106 160 0
93 -134 160 0
93 -95 160 0
-95 -106 -134 160 0
95 106 134 -160 0
-104 -122 161 0
-93 -104 161 0
-93 -122 161 0
104 122 -161 0
93 104 -161 0
93 122 -161 0
104 -161 -162 0
122 -161 -162 0
93 -161 -162 0
-104 161 162 0
-122 161 162 0
-93 161 162 0
-93 -104 -122 162 0
93 104 122 -162 0
-102 -116 163 0
-102 -161 163 0
-116 -161 163 0
102 116 -163 0
102 161 -163 0
116 161 -163 0
102 -163 -164 0
116 -163 -164 0
161 -163 -164 0
-102 163 164 0
-116 163 164 0
-161 163 164 0
-102 -116 -161 164 0
102 116 161 -164 0
-100 -138 165 0
-100 -163 165 0
-138 -163 165 0
100 138 -165 0
100 163 -165 0
138 163 -165 0
100 -165 -166 0
138 -165 -166 0
163 -165 -166 0
-100 165 166 0
-138 165 166 0
-163 165 166 0
-100 -138 -163 166 0
100 138 163 -166 0
-98 -131 167 0
-98 -165 167 0
-131 -165 167 0
98 131 -167 0
98 165 -167 0
131 165 -167 0
98 -167 -168 0
131 -167 -168 0
165 -167 -168 0
-98 167 168 0
-131 167 168 0
-165 167 168 0
-98 -131 -165 168 0
98 131 165 -168 0
-99 -127 169 0
-99 -167 169 0
-127 -167 169 0
99 127 -169 0
99 167 -169 0
127 167 -169 0
99 -169 -170 0
127 -169 -170 0
167 -169 -170 0
-99 169 170 0
-127 169 170 0
-167 169 170 0
-99 -127 -167 170 0
99 127 167 -170 0
94 -171 0
145 -171 0
-94 -145 171 0
-94 -145 -172 0
94 145 -172 0
-94 145 172 0
94 -145 172 0
-141 -160 173 0
-160 -171 173 0
-141 -171 173 0
141 160 -173 0
160 171 -173 0
141 171 -173 0
160 -173 -174 0
141 -173 -174 0
171 -173 -174 0
-160 173 174 0
-141 173 174 0
-171 173 174 0
-141 -160 -171 174 0
141 160 171 -174 0
-134 -162 175 0
-162 -173 175 0
-134 -173 175 0
134 162 -175 0
162 173 -175 0
134 173 -175 0
162 -175 -176 0
134 -175 -176 0
173 -175 -176 0
-162 175 176 0
-134 175 176 0
-173 175 176 0
-134 -162 -173 176 0
134 162 173 -176 0
-122 -164 177 0
-164 -175 177 0
-122 -175 177 0
122 164 -177 0
164 175 -177 0
122 175 -177 0
164 -177 -178 0
122 -177 -178 0
175 -177 -178 0
-164 177 178 0
-122 177 178 0
-175 177 178 0
-122 -164 -175 178 0
122 164 175 -178 0
-116 -166 179 0
-166 -177 179 0
-116 -177 179 0
116 166 -179 0
166 177 -179 0
116 177 -179 0
166 -179 -180 0
116 -179 -180 0
177 -179 -180 0
-166 179 180 0
-116 179 180 0
-177 179 180 0
-116 -166 -177 180 0
116 166 177 -180 0
-138 -168 181 0
-168 -179 181 0
-138 -179 181 0
138 168 -181 0
168 179 -181 0
138 179 -181 0
168 -181 -182 0
138 -181 -182 0
179 -181 -182 0
-168 181 182 0
-138 181 182 0
-179 181 182 0
-138 -168 -179 182 0
138 168 179 -182 0
-131 -170 183 0
-170 -181 183 0
-131 -181 183 0
131 170 -183 0
170 181 -183 0
131 181 -183 0
170 -183 -184 0
131 -183 -184 0
181 -183 -184 0
-170 183 184 0
-131 183 184 0
-181 183 184 0
-131 -170 -181 184 0
131 170 181 -184 0
-127 -169 185 0
-169 -183 185 0
-127 -183 185 0
127 169 -185 0
169 183 -185 0
127 183 -185 0
169 -185 -186 0
127 -185 -186 0
183 -185 -186 0
-169 185 186 0
-127 185 186 0
-183 185 186 0
-127 -169 -183 186 0
127 169 183 -186 0
-145 -187 0
-154 -187 0
145 154 187 0
145 154 -188 0
-145 -154 -188 0
-145 154 188 0
145 -154 188 0
187 -189 0
-115 -189 0
115 -187 189 0
115 -187 -190 0
-115 187 -190 0
115 187 190 0
-115 -187 190 0
189 -191 0
-96 -191 0
96 -189 191 0
96 -189 -192 0
-96 189 -192 0
96 189 192 0
-96 -189 192 0
191 -193 0
-172 -193 0
172 -191 193 0
172 -191 -194 0
-172 191 -194 0
172 191 194 0
-172 -191 194 0
193 -195 0
-174 -195 0
174 -193 195 0
174 -193 -196 0
-174 193 -196 0
174 193 196 0
-174 -193 196 0
195 -197 0
-176 -197 0
176 -195 197 0
176 -195 -198 0
-176 195 -198 0
176 195 198 0
-176 -195 198 0
197 -199 0
-178 -199 0
178 -197 199 0
178 -197 -200 0
-178 197 -200 0
178 197 200 0
-178 -197 200 0
199 -201 0
-180 -201 0
180 -199 201 0
180 -199 -202 0
-180 199 -202 0
180 199 202 0
-180 -199 202 0
201 -203 0
-182 -203 0
182 -201 203 0
-146 182 -201 0
-146 -182 201 0
146 182 201 0
146 -182 -201 0
-142 203 0
-142 -184 0
142 184 -203 0
-135 184 -203 0
-135 -184 203 0
135 184 203 0
135 -184 -203 0
-123 142 0
-123 -186 0
123 -142 186 0
-117 -142 186 0
-117 142 -186 0
117 142 186 0
117 -142 -186 0
123 -139 0
-139 -185 0
-123 139 185 0
-123 -132 185 0
123 -132 -185 0
123 132 185 0
-123 132 -185 0
-128 -204 0
-128 -206 0
128 204 206 0
204 -205 206 0
-204 -205 -206 0
-204 205 206 0
204 205 -206 0
128 -207 0
-207 -208 0
-128 207 208 0
-128 208 -209 0
128 -208 -209 0
128 208 209 0
-128 -208 209 0
207 -210 0
-210 -211 0
-207 210 211 0
-207 211 -212 0
207 -211 -212 0
207 211 212 0
-207 -211 212 0
210 -214 0
-213 -214 0
-210 213 214 0
-210 213 -216 0
210 -213 -216 0
210 213 216 0
-210 -213 216 0
214 -217 0
-215 -217 0
-214 215 217 0
-214 215 -218 0
214 -215 -218 0
214 215 218 0
-214 -215 218 0
217 -219 0
-92 -219 0
92 -217 219 0
-91 92 -217 0
-91 -92 217 0
91 92 217 0
91 -92 -217 0
-90 219 0
-89 -90 0
89 90 -219 0
-88 89 -219 0
-88 -89 219 0
88 89 219 0
88 -89 -219 0
-87 208 0
-87 204 0
87 -204 -208 0
-86 -204 -208 0
-86 204 208 0
86 204 -208 0
86 -204 208 0
85 -206 -211 0
85 -87 -211 0
85 -87 -206 0
-85 206 211 0
-85 87 211 0
-85 87 206 0
-84 -85 211 0
-84 -85 206 0
-84 -85 87 0
84 85 -211 0
84 85 -206 0
84 85 -87 0
84 -87 -206 -211 0
-84 87 206 211 0
83 -208 -213 0
83 -85 -213 0
83 -85 -208 0
-83 208 213 0
-83 85 213 0
-83 85 208 0
-82 -83 213 0
-82 -83 208 0
-82 -83 85 0
82 83 -213 0
82 83 -208 0
82 83 -85 0
82 -85 -208 -213 0
-82 85 208 213 0
81 -211 -215 0
81 -83 -215 0
81 -83 -211 0
-81 211 215 0
-81 83 215 0
-81 83 211 0
-80 -81 215 0
-80 -81 211 0
-80 -81 83 0
80 81 -215 0
80 81 -211 0
80 81 -83 0
80 -83 -211 -215 0
-80 83 211 215 0
79 -92 -213 0
79 -81 -92 0
79 -81 -213 0
-79 92 213 0
-79 81 92 0
-79 81 213 0
-78 -79 92 0
-78 -79 213 0
-78 -79 81 0
78 79 -92 0
78 79 -213 0
78 79 -81 0
78 -81 -92 -213 0
-78 81 92 213 0
77 -89 -215 0
77 -79 -89 0
77 -79 -215 0
-77 89 215 0
-77 79 89 0
-77 79 215 0
-76 -77 89 0
-76 -77 215 0
-76 -77 79 0
76 77 -89 0
76 77 -215 0
76 77 -79 0
76 -79 -89 -215 0
-76 79 89 215 0
-75 92 0
-75 77 0
75 -77 -92 0
-74 -77 -92 0
-74 77 92 0
74 77 -92 0
74 -77 92 0
-73 89 0
-73 75 0
73 -75 -89 0
-72 -75 -89 0
-72 75 89 0
72 75 -89 0
72 -75 89 0
-71 84 0
-71 204 0
71 -84 -204 0
-70 -84 -204 0
-70 84 204 0
70 -84 204 0
70 84 -204 0
69 -82 -206 0
69 -71 -82 0
69 -71 -206 0
-69 82 206 0
-69 71 82 0
-69 71 206 0
-68 -69 82 0
-68 -69 206 0
-68 -69 71 0
68 69 -82 0
68 69 -206 0
68 69 -71 0
68 -71 -82 -206 0
-68 71 82 206 0
67 -80 -208 0
67 -69 -80 0
67 -69 -208 0
-67 80 208 0
-67 69 80 0
-67 69 208 0
-66 -67 80 0
-66 -67 208 0
-66 -67 69 0
66 67 -80 0
66 67 -208 0
66 67 -69 0
66 -69 -80 -208 0
-66 69 80 208 0
65 -78 -211 0
65 -67 -78 0
65 -67 -211 0
-65 78 211 0
-65 67 78 0
-65 67 211 0
-64 -65 78 0
-64 -65 211 0
-64 -65 67 0
64 65 -78 0
64 65 -211 0
64 65 -67 0
64 -67 -78 -211 0
-64 67 78 211 0
63 -76 -213 0
63 -65 -76 0
63 -65 -213 0
-63 76 213 0
-63 65 76 0
-63 65 213 0
-62 -63 76 0
-62 -63 213 0
-62 -63 65 0
62 63 -76 0
62 63 -213 0
62 63 -65 0
62 -65 -76 -213 0
-62 65 76 213 0
61 -74 -215 0
61 -63 -74 0
61 -63 -215 0
-61 74 215 0
-61 63 74 0
-61 63 215 0
-60 -61 74 0
-60 -61 215 0
-60 -61 63 0
60 61 -74 0
60 61 -215 0
60 61 -63 0
60 -63 -74 -215 0
-60 63 74 215 0
59 -72 -92 0
59 -61 -72 0
59 -61 -92 0
-59 72 92 0
-59 61 72 0
-59 61 92 0
-58 -59 72 0
-58 -59 92 0
-58 -59 61 0
58 59 -72 0
58 59 -92 0
58 59 -61 0
58 -61 -72 -92 0
-58 61 72 92 0
57 -73 -89 0
57 -59 -73 0
57 -59 -89 0
-57 73 89 0
-57 59 73 0
-57 59 89 0
-56 -57 73 0
-56 -57 89 0
-56 -57 59 0
56 57 -73 0
56 57 -89 0
56 57 -59 0
56 -59 -73 -89 0
-56 59 73 89 0
-55 66 0
-55 204 0
55 -66 -204 0
-54 -66 -204 0
-54 66 204 0
54 -66 204 0
54 66 -204 0
53 -64 -206 0
53 -55 -64 0
53 -55 -206 0
-53 64 206 0
-53 55 64 0
-53 55 206 0
-52 -53 64 0
-52 -53 206 0
-52 -53 55 0
52 53 -64 0
52 53 -206 0
52 53 -55 0
52 -55 -64 -206 0
-52 55 64 206 0
51 -62 -208 0
51 -53 -62 0
51 -53 -208 0
-51 62 208 0
-51 53 62 0
-51 53 208 0
-50 -51 62 0
-50 -51 208 0
-50 -51 53 0
50 51 -62 0
50 51 -208 0
50 51 -53 0
50 -53 -62 -208 0
-50 53 62 208 0
49 -60 -211 0
49 -51 -60 0
49 -51 -211 0
-49 60 211 0
-49 51 60 0
-49 51 211 0
-48 -49 60 0
-48 -49 211 0
-48 -49 51 0
48 49 -60 0
48 49 -211 0
48 49 -51 0
48 -51 -60 -211 0
-48 51 60 211 0
47 -58 -213 0
47 -49 -58 0
47 -49 -213 0
-47 58 213 0
-47 49 58 0
-47 49 213 0
-46 -47 58 0
-46 -47 213 0
-46 -47 49 0
46 47 -58 0
46 47 -213 0
46 47 -49 0
46 -49 -58 -213 0
-46 49 58 213 0
45 -56 -215 0
45 -47 -56 0
45 -47 -215 0
-45 56 215 0
-45 47 56 0
-45 47 215 0
-44 -45 56 0
-44 -45 215 0
-44 -45 47 0
44 45 -56 0
44 45 -215 0
44 45 -47 0
44 -47 -56 -215 0
-44 47 56 215 0
43 -57 -92 0
43 -45 -57 0
43 -45 -92 0
-43 57 92 0
-43 45 57 0
-43 45 92 0
-42 -43 57 0
-42 -43 92 0
-42 -43 45 0
42 43 -57 0
42 43 -92 0
42 43 -45 0
42 -45 -57 -92 0
-42 45 57 92 0
-41 89 0
-41 43 0
41 -43 -89 0
-40 -43 -89 0
-40 43 89 0
40 43 -89 0
40 -43 89 0
-39 -204 0
-39 -206 0
39 204 206 0
-38 204 206 0
-38 -204 -206 0
38 -204 206 0
38 204 -206 0
-37 39 0
-37 -86 0
37 -39 86 0
-36 -39 86 0
-36 39 -86 0
36 39 86 0
36 -39 -86 0
-35 37 0
-35 -70 0
35 -37 70 0
-34 -37 70 0
-34 37 -70 0
34 37 70 0
34 -37 -70 0
-33 35 0
-33 -68 0
33 -35 68 0
-32 -35 68 0
-32 35 -68 0
32 35 68 0
32 -35 -68 0
-31 33 0
-31 -54 0
31 -33 54 0
-30 -33 54 0
-30 33 -54 0
30 33 54 0
30 -33 -54 0
-29 31 0
-29 -52 0
29 -31 52 0
-28 -31 52 0
-28 31 -52 0
28 31 52 0
28 -31 -52 0
-27 29 0
-27 -50 0
27 -29 50 0
-26 -29 50 0
-26 29 -50 0
26 29 50 0
26 -29 -50 0
-25 27 0
-25 -48 0
25 -27 48 0
-24 -27 48 0
-24 27 -48 0
24 27 48 0
24 -27 -48 0
-23 25 0
-23 -46 0
23 -25 46 0
-22 -25 46 0
-22 25 -46 0
22 25 46 0
22 -25 -46 0
-21 23 0
-21 -44 0
21 -23 44 0
-20 -23 44 0
-20 23 -44 0
20 23 44 0
20 -23 -44 0
-19 21 0
-19 -42 0
19 -21 42 0
-18 -21 42 0
-18 21 -42 0
18 21 42 0
18 -21 -42 0
-17 19 0
-17 -40 0
17 -19 40 0
-16 -19 40 0
-16 19 -40 0
16 19 40 0
16 -19 -40 0
-15 17 0
-15 -41 0
15 -17 41 0
-14 -17 41 0
-14 17 -41 0
14 17 41 0
14 -17 -41 0
-13 145 0
-13 204 0
13 -145 -204 0
-145 -204 0
145 204 0
12 -154 -206 0
12 -13 -154 0
12 -13 -206 0
-12 154 206 0
-12 13 154 0
-12 13 206 0
12 -154 0
12 -206 0
12 -13 0
-13 -154 -206 0
11 -86 -115 0
11 -12 -115 0
11 -12 -86 0
-11 86 115 0
-11 12 115 0
-11 12 86 0
11 -115 0
11 -86 0
11 -12 0
-12 -86 -115 0
10 -70 -96 0
10 -11 -96 0
10 -11 -70 0
-10 70 96 0
-10 11 96 0
-10 11 70 0
-10 96 0
-10 70 0
-10 11 0
11 70 96 0
9 -68 -172 0
9 -10 -172 0
9 -10 -68 0
-9 68 172 0
-9 10 172 0
-9 10 68 0
9 -172 0
9 -68 0
9 -10 0
-10 -68 -172 0
8 -54 -174 0
8 -9 -174 0
8 -9 -54 0
-8 54 174 0
-8 9 174 0
-8 9 54 0
8 -174 0
8 -54 0
8 -9 0
-9 -54 -174 0
7 -52 -176 0
7 -8 -176 0
7 -8 -52 0
-7 52 176 0
-7 8 176 0
-7 8 52 0
7 -176 0
7 -52 0
7 -8 0
-8 -52 -176 0
6 -50 -178 0
6 -7 -178 0
6 -7 -50 0
-6 50 178 0
-6 7 178 0
-6 7 50 0
6 -178 0
6 -50 0
6 -7 0
-7 -50 -178 0
5 -48 -180 0
5 -6 -180 0
5 -6 -48 0
-5 48 180 0
-5 6 180 0
-5 6 48 0
5 -180 0
5 -48 0
5 -6 0
-6 -48 -180 0
4 -46 -182 0
4 -5 -182 0
4 -5 -46 0
-4 46 182 0
-4 5 182 0
-4 5 46 0
4 -182 0
4 -46 0
4 -5 0
-5 -46 -182 0
3 -44 -184 0
3 -4 -184 0
3 -4 -44 0
-3 44 184 0
-3 4 184 0
-3 4 44 0
3 -184 0
3 -44 0
3 -4 0
-4 -44 -184 0
2 -42 -186 0
2 -3 -186 0
2 -3 -42 0
-2 42 186 0
-2 3 186 0
-2 3 42 0
2 -186 0
2 -42 0
2 -3 0
-3 -42 -186 0
1 -40 -185 0
1 -2 -185 0
1 -2 -40 0
-1 40 185 0
-1 2 185 0
-1 2 40 0
1 -185 0
1 -40 0
1 -2 0
-2 -40 -185 0
-1 -41 0
1 -41 0
-1 41 0
